Version identifier: 20.1.0.0 | 2020-11-10 | 9bedb6d68
Tried aggregator 2 times.
MIP Presolve eliminated 1927 rows and 1029 columns.
MIP Presolve modified 4810 coefficients.
Aggregator did 211 substitutions.
Reduced MIP has 2881 rows, 2285 columns, and 9530 nonzeros.
Reduced MIP has 484 binaries, 1801 generals, 0 SOSs, and 0 indicators.
Presolve time = 0.02 sec. (11.12 ticks)
Probing fixed 60 vars, tightened 574 bounds.
Probing time = 0.00 sec. (2.04 ticks)
Tried aggregator 1 time.
Detecting symmetries...
MIP Presolve eliminated 1230 rows and 60 columns.
MIP Presolve modified 203 coefficients.
Reduced MIP has 1651 rows, 2225 columns, and 5540 nonzeros.
Reduced MIP has 578 binaries, 1647 generals, 0 SOSs, and 0 indicators.
Presolve time = 0.01 sec. (6.23 ticks)
Probing time = 0.00 sec. (0.43 ticks)
Clique table members: 65.
MIP emphasis: balance optimality and feasibility.
MIP search method: dynamic search.
Parallel mode: deterministic, using up to 24 threads.
Root relaxation solution time = 0.03 sec. (6.89 ticks)

        Nodes                                         Cuts/
   Node  Left     Objective  IInf  Best Integer    Best Bound    ItCnt     Gap

      0     0        0.0000    78                      0.0000      599         
*     0+    0                           27.0000        0.0000           100.00%
      0     0        0.0000   109       27.0000     Cuts: 189      729   62.96%
      0     0        0.0000   120       27.0000      Cuts: 87      811   62.96%
*     0+    0                           22.0000       10.0000            54.55%
      0     2        0.0000    25       22.0000       18.0000      811   18.18%
Elapsed time = 1.21 sec. (277.11 ticks, tree = 0.02 MB, solutions = 2)
*    40+    2                           19.0000       18.0000             5.26%
*   222    17      integral     0       18.0000       18.0000    30669    0.00%

Cover cuts applied:  1
Implied bound cuts applied:  196
Flow cuts applied:  5
Mixed integer rounding cuts applied:  11
Zero-half cuts applied:  62
Lift and project cuts applied:  20
Gomory fractional cuts applied:  23

Root node processing (before b&c):
  Real time             =    1.07 sec. (276.53 ticks)
Parallel b&c, 24 threads:
  Real time             =    1.07 sec. (119.86 ticks)
  Sync time (average)   =    0.82 sec.
  Wait time (average)   =    0.00 sec.
                          ------------
Total (root+branch&cut) =    2.15 sec. (396.39 ticks)

Solution status = Optimal
Solution LB = 18
Solution UB = 18
Runtime = 2.15544 seconds
	Command being timed: "/home/min/git_repos/CS598MEBProject/CNT-ILP/build/cnt -s 2 ./output/k8_n30/simC_c1_k8_n30_u2_s3_del02.input-right.cnp"
	User time (seconds): 30.99
	System time (seconds): 0.28
	Percent of CPU this job got: 1416%
	Elapsed (wall clock) time (h:mm:ss or m:ss): 0:02.20
	Average shared text size (kbytes): 0
	Average unshared data size (kbytes): 0
	Average stack size (kbytes): 0
	Average total size (kbytes): 0
	Maximum resident set size (kbytes): 164472
	Average resident set size (kbytes): 0
	Major (requiring I/O) page faults: 0
	Minor (reclaiming a frame) page faults: 59660
	Voluntary context switches: 12723
	Involuntary context switches: 3860
	Swaps: 0
	File system inputs: 0
	File system outputs: 24
	Socket messages sent: 0
	Socket messages received: 0
	Signals delivered: 0
	Page size (bytes): 4096
	Exit status: 0
